999,724
786,551
858,378
524,891
909,332
735,300
789,619
718,169
487,547
927,67
829,383
596,433
425,323
820,-21
561,406
1028,229
654,491
802,494
875,547
999,724
563,424
596,433
452,91
945,770
681,556
937,489
